CPXPARAM_MIP_Tolerances_MIPGap                   0
Lazy constraint(s) or lazy constraint callback is present.
    Disabling dual reductions (CPX_PARAM_REDUCE) in presolve.
    Disabling non-linear reductions (CPX_PARAM_PRELINEAR) in presolve.
         Disabling repeat represolve because of lazy constraint/incumbent callback.
Tried aggregator 1 time.
MIP Presolve eliminated 4186 rows and 22 columns.
MIP Presolve modified 26 coefficients.
Reduced MIP has 595 rows, 4263 columns, and 1282 nonzeros.
Reduced MIP has 3788 binaries, 0 generals, 0 SOSs, and 0 indicators.
Presolve time = 0.02 sec. (2.57 ticks)
Probing time = 0.00 sec. (0.60 ticks)
Clique table members: 197.
MIP emphasis: balance optimality and feasibility.
MIP search method: traditional branch-and-cut.
Parallel mode: none, using 1 thread.
Root relaxation solution time = 0.00 sec. (1.96 ticks)

        Nodes                                         Cuts/
   Node  Left     Objective  IInf  Best Integer    Best Bound    ItCnt     Gap         Variable B NodeID Parent  Depth

      0     0       22.0000    45                     22.0000       46         
      0     0       37.0006    18                   Cuts: 197      424         
      0     0       39.0000     6                    Cuts: 47      454         
      0     0       39.0000    34                     Cuts: 9      485         
      0     0       39.0000    28                  MIRcuts: 3      502         
      0     0       39.0000    28                  MIRcuts: 2      507         
*     0+    0                           75.0000       39.0000            48.00%
      0     2       39.0000    25       75.0000       39.0000      507   48.00%                        0             0
Elapsed time = 0.30 sec. (143.08 ticks, tree = 0.01 MB, solutions = 1)
*    57    31      integral     0       48.0000       39.0000      926   18.75%
     87    57       46.0000     7       48.0000       39.0004     1443   18.75%         41step1 U     87     86     21
*   109    54      integral     0       47.0000       39.0004     1580   17.02%
    215   112       45.0000     5       47.0000       40.0000     2420   14.89%  25T10prec28T10 U    215    213     38
*   226    89      integral     0       45.0000       40.0000     2483   11.11%
*   268    89      integral     0       44.0000       40.0000     2971    9.09%
*   280+   53                           43.0000       40.0000             6.98%
    304    64       42.0000     5       43.0000       40.0000     3364    6.98%  39T20prec40T20 D    304    303     23
*   319    31      integral     0       42.0000       40.0000     3499    4.76%
*   360+   27                           41.0000       40.0000             2.44%
*   387     0      integral     0       40.0000       40.0000     4079    0.00%

Clique cuts applied:  110
Cover cuts applied:  3
Implied bound cuts applied:  2
Mixed integer rounding cuts applied:  58
User cuts applied:  1446

Root node processing (before b&c):
  Real time             =    0.31 sec. (143.35 ticks)
Sequential b&c:
  Real time             =    1.31 sec. (899.10 ticks)
                          ------------
Total (root+branch&cut) =    1.63 sec. (1042.45 ticks)
